\Problem name:                                                                  
\FICO Xpress v8.9.2, Community, written 14:15:20, Jun 10, 2020

Minimize
 444 + 2 C4 + [ 2 C4^2 ] / 2

Subject To
row1: x1 + x3 >= -2.4 
row2: x1 + x3 >= -3 
row3: x2 + x3 = 4 
constr_04: x2 + x3 <= 5 

Bounds
-1 <= x1 <= 3 
-1 <= x2 <= 5 
-1 <= x3 <= 8 

End
